
Gurobi 9.1.1 (linux64, Python) logging started Mon Mar  7 16:49:35 2022

Academic license - for non-commercial use only - expires 2022-07-01
Using license file /home/machstg/gurobi.lic
Set parameter LogFile to value gurobi.log
